15
-1 45 48 83 48 73 7 12 34 12 27 70 7 51 37 
85 -1 20 33 34 41 75 85 48 100 68 15 50 98 72 
98 8 -1 56 42 18 98 80 72 60 28 33 43 23 60 
64 35 30 -1 56 6 29 97 70 59 81 56 51 42 98 
49 47 33 20 -1 86 61 3 5 95 34 69 7 49 26 
74 57 99 47 50 -1 4 28 81 49 32 66 90 35 91 
1 14 24 66 70 61 -1 9 89 65 32 40 87 81 38 
44 94 47 8 31 8 78 -1 99 46 55 14 36 30 74 
66 100 3 41 71 73 5 85 -1 89 57 30 68 67 57 
59 3 27 17 38 64 87 66 23 -1 63 43 64 70 24 
15 61 85 39 39 9 94 22 14 76 -1 62 82 58 29 
99 32 17 17 40 42 25 79 19 70 64 -1 40 24 35 
19 86 78 30 87 81 33 18 69 94 75 83 -1 6 87 
96 51 10 6 89 18 34 42 46 63 83 64 91 -1 92 
34 86 88 39 77 77 64 53 15 66 88 44 14 57 -1 
